10	10
1	4	7	4	6	3	2	5	4	8	5	5	3	3	0	1	8	4	9	3
3	6	6	6	2	1	0	7	5	3	7	2	1	3	9	9	8	5	4	1
7	2	6	1	2	7	9	6	3	8	8	3	1	6	0	2	4	9	5	2
1	6	8	9	9	1	3	2	2	5	5	6	6	4	4	5	7	5	0	5
7	8	6	2	5	8	2	5	1	6	3	7	9	2	8	6	0	6	4	4
9	6	5	8	1	8	8	2	3	8	2	1	4	2	7	9	6	6	0	5
6	2	5	5	0	2	2	7	4	2	3	8	8	4	7	2	9	6	1	7
1	8	5	1	2	3	0	2	9	6	8	3	3	9	7	8	6	8	4	9
4	1	6	2	7	5	9	9	5	2	2	1	0	7	1	5	3	6	8	9
1	3	6	1	0	4	7	1	3	9	8	3	2	3	5	9	9	1	4	7
